8144.0
[1, 1, 0, 0, 0, 0, 0, 0, 0, 1, 1, 0, 0, 1, 1, 1, 0, 1, 0, 1]
[0, 1, 10, 10, 1, 15, 17, 13, 14, 17, 15, 19, 1, 10, 13, 14, 15, 10, 17, 9, 14, 15, 15, 19, 9, 17, 0, 17, 1, 17, 13, 15, 13, 0, 1, 10, 17, 19, 19, 13, 10, 0, 0, 0, 9, 13, 14, 10, 19, 9]